p cnf 967 2484
51 -700 -1 0
-51 700 0
-51 1 0
52 -51 -701 0
-52 51 0
-52 701 0
53 -702 -4 0
-53 702 0
-53 4 0
54 -53 -703 0
-54 53 0
-54 703 0
55 -704 -705 0
-55 704 0
-55 705 0
56 -706 -7 0
-56 706 0
-56 7 0
57 -56 -707 0
-57 56 0
-57 707 0
58 -708 -55 0
-58 708 0
-58 55 0
59 -11 -10 0
-59 11 0
-59 10 0
60 -59 -709 0
-60 59 0
-60 709 0
61 -710 -58 0
-61 710 0
-61 58 0
62 -14 -13 0
-62 14 0
-62 13 0
63 -62 -709 0
-63 62 0
-63 709 0
64 -711 -61 0
-64 711 0
-64 61 0
65 -712 -15 0
-65 712 0
-65 15 0
66 -65 -713 0
-66 65 0
-66 713 0
67 -714 -64 0
-67 714 0
-67 64 0
68 -18 -16 0
-68 18 0
-68 16 0
69 -68 -715 0
-69 68 0
-69 715 0
70 -716 -67 0
-70 716 0
-70 67 0
71 -20 -717 0
-71 20 0
-71 717 0
72 -71 -3 0
-72 71 0
-72 3 0
73 -718 -70 0
-73 718 0
-73 70 0
74 -719 -18 0
-74 719 0
-74 18 0
75 -74 -22 0
-75 74 0
-75 22 0
76 -720 -73 0
-76 720 0
-76 73 0
77 -721 -4 0
-77 721 0
-77 4 0
78 -77 -12 0
-78 77 0
-78 12 0
79 -722 -76 0
-79 722 0
-79 76 0
80 -723 -8 0
-80 723 0
-80 8 0
81 -80 -724 0
-81 80 0
-81 724 0
82 -725 -79 0
-82 725 0
-82 79 0
83 -726 -13 0
-83 726 0
-83 13 0
84 -83 -25 0
-84 83 0
-84 25 0
85 -727 -82 0
-85 727 0
-85 82 0
86 -16 -13 0
-86 16 0
-86 13 0
87 -86 -713 0
-87 86 0
-87 713 0
88 -728 -85 0
-88 728 0
-88 85 0
89 -729 -26 0
-89 729 0
-89 26 0
90 -89 -730 0
-90 89 0
-90 730 0
91 -731 -88 0
-91 731 0
-91 88 0
92 -732 -721 0
-92 732 0
-92 721 0
93 -92 -5 0
-93 92 0
-93 5 0
94 -733 -91 0
-94 733 0
-94 91 0
95 -21 -723 0
-95 21 0
-95 723 0
96 -95 -730 0
-96 95 0
-96 730 0
97 -734 -94 0
-97 734 0
-97 94 0
98 -735 -700 0
-98 735 0
-98 700 0
99 -98 -30 0
-99 98 0
-99 30 0
100 -736 -97 0
-100 736 0
-100 97 0
101 -700 -737 0
-101 700 0
-101 737 0
102 -101 -17 0
-102 101 0
-102 17 0
103 -738 -100 0
-103 738 0
-103 100 0
104 -726 -737 0
-104 726 0
-104 737 0
105 -104 -31 0
-105 104 0
-105 31 0
106 -739 -103 0
-106 739 0
-106 103 0
107 -740 -23 0
-107 740 0
-107 23 0
108 -107 -30 0
-108 107 0
-108 30 0
109 -741 -106 0
-109 741 0
-109 106 0
110 -735 -2 0
-110 735 0
-110 2 0
111 -110 -742 0
-111 110 0
-111 742 0
112 -743 -109 0
-112 743 0
-112 109 0
113 -717 -16 0
-113 717 0
-113 16 0
114 -113 -744 0
-114 113 0
-114 744 0
115 -745 -112 0
-115 745 0
-115 112 0
116 -34 -3 0
-116 34 0
-116 3 0
117 -116 -35 0
-117 116 0
-117 35 0
118 -746 -115 0
-118 746 0
-118 115 0
119 -36 -747 0
-119 36 0
-119 747 0
120 -119 -748 0
-120 119 0
-120 748 0
121 -749 -118 0
-121 749 0
-121 118 0
122 -21 -702 0
-122 21 0
-122 702 0
123 -122 -37 0
-123 122 0
-123 37 0
124 -750 -121 0
-124 750 0
-124 121 0
125 -15 -6 0
-125 15 0
-125 6 0
126 -125 -17 0
-126 125 0
-126 17 0
127 -751 -124 0
-127 751 0
-127 124 0
128 -752 -17 0
-128 752 0
-128 17 0
129 -128 -22 0
-129 128 0
-129 22 0
130 -753 -127 0
-130 753 0
-130 127 0
131 -38 -21 0
-131 38 0
-131 21 0
132 -131 -30 0
-132 131 0
-132 30 0
133 -754 -130 0
-133 754 0
-133 130 0
134 -33 -732 0
-134 33 0
-134 732 0
135 -134 -12 0
-135 134 0
-135 12 0
136 -755 -133 0
-136 755 0
-136 133 0
137 -756 -16 0
-137 756 0
-137 16 0
138 -137 -40 0
-138 137 0
-138 40 0
139 -757 -136 0
-139 757 0
-139 136 0
140 -32 -26 0
-140 32 0
-140 26 0
141 -140 -18 0
-141 140 0
-141 18 0
142 -758 -139 0
-142 758 0
-142 139 0
143 -759 -709 0
-143 759 0
-143 709 0
144 -143 -742 0
-144 143 0
-144 742 0
145 -760 -142 0
-145 760 0
-145 142 0
146 -761 -31 0
-146 761 0
-146 31 0
147 -146 -25 0
-147 146 0
-147 25 0
148 -762 -145 0
-148 762 0
-148 145 0
149 -761 -756 0
-149 761 0
-149 756 0
150 -149 -31 0
-150 149 0
-150 31 0
151 -763 -148 0
-151 763 0
-151 148 0
152 -31 -14 0
-152 31 0
-152 14 0
153 -152 -764 0
-153 152 0
-153 764 0
154 -765 -151 0
-154 765 0
-154 151 0
155 -42 -31 0
-155 42 0
-155 31 0
156 -155 -40 0
-156 155 0
-156 40 0
157 -766 -154 0
-157 766 0
-157 154 0
158 -767 -27 0
-158 767 0
-158 27 0
159 -158 -14 0
-159 158 0
-159 14 0
160 -768 -157 0
-160 768 0
-160 157 0
161 -7 -4 0
-161 7 0
-161 4 0
162 -161 -17 0
-162 161 0
-162 17 0
163 -769 -160 0
-163 769 0
-163 160 0
164 -44 -37 0
-164 44 0
-164 37 0
165 -164 -45 0
-165 164 0
-165 45 0
166 -770 -163 0
-166 770 0
-166 163 0
167 -759 -744 0
-167 759 0
-167 744 0
168 -167 -25 0
-168 167 0
-168 25 0
169 -771 -166 0
-169 771 0
-169 166 0
170 -772 -721 0
-170 772 0
-170 721 0
171 -170 -28 0
-171 170 0
-171 28 0
172 -773 -169 0
-172 773 0
-172 169 0
173 -47 -774 0
-173 47 0
-173 774 0
174 -173 -726 0
-174 173 0
-174 726 0
175 -775 -172 0
-175 775 0
-175 172 0
176 -776 -777 0
-176 776 0
-176 777 0
177 -176 -744 0
-177 176 0
-177 744 0
178 -778 -175 0
-178 778 0
-178 175 0
179 -779 -780 0
-179 779 0
-179 780 0
180 -179 -45 0
-180 179 0
-180 45 0
181 -781 -178 0
-181 781 0
-181 178 0
182 -10 -2 0
-182 10 0
-182 2 0
183 -182 -45 0
-183 182 0
-183 45 0
184 -782 -181 0
-184 782 0
-184 181 0
185 -783 -11 0
-185 783 0
-185 11 0
186 -185 -715 0
-186 185 0
-186 715 0
187 -784 -184 0
-187 784 0
-187 184 0
188 -107 -703 0
-188 107 0
-188 703 0
189 -785 -187 0
-189 785 0
-189 187 0
190 -44 -32 0
-190 44 0
-190 32 0
191 -190 -18 0
-191 190 0
-191 18 0
192 -786 -189 0
-192 786 0
-192 189 0
193 -783 -29 0
-193 783 0
-193 29 0
194 -193 -17 0
-194 193 0
-194 17 0
195 -787 -192 0
-195 787 0
-195 192 0
196 -49 -726 0
-196 49 0
-196 726 0
197 -196 -48 0
-197 196 0
-197 48 0
198 -788 -195 0
-198 788 0
-198 195 0
199 -27 -789 0
-199 27 0
-199 789 0
200 -199 -767 0
-200 199 0
-200 767 0
201 -790 -198 0
-201 790 0
-201 198 0
202 -42 -730 0
-202 42 0
-202 730 0
203 -202 -752 0
-203 202 0
-203 752 0
204 -791 -201 0
-204 791 0
-204 201 0
205 -776 -21 0
-205 776 0
-205 21 0
206 -205 -30 0
-206 205 0
-206 30 0
207 -792 -204 0
-207 792 0
-207 204 0
208 -707 -2 0
-208 707 0
-208 2 0
209 -208 -35 0
-209 208 0
-209 35 0
210 -793 -207 0
-210 793 0
-210 207 0
211 -2 -737 0
-211 2 0
-211 737 0
212 -211 -794 0
-212 211 0
-212 794 0
213 -795 -210 0
-213 795 0
-213 210 0
214 -44 -9 0
-214 44 0
-214 9 0
215 -214 -35 0
-215 214 0
-215 35 0
216 -796 -213 0
-216 796 0
-216 213 0
217 -761 -32 0
-217 761 0
-217 32 0
218 -217 -27 0
-218 217 0
-218 27 0
219 -797 -216 0
-219 797 0
-219 216 0
220 -50 -702 0
-220 50 0
-220 702 0
221 -220 -19 0
-221 220 0
-221 19 0
222 -798 -219 0
-222 798 0
-222 219 0
223 -46 -774 0
-223 46 0
-223 774 0
224 -223 -8 0
-224 223 0
-224 8 0
225 -799 -222 0
-225 799 0
-225 222 0
226 -42 -27 0
-226 42 0
-226 27 0
227 -226 -12 0
-227 226 0
-227 12 0
228 -800 -225 0
-228 800 0
-228 225 0
229 -801 -15 0
-229 801 0
-229 15 0
230 -229 -709 0
-230 229 0
-230 709 0
231 -802 -228 0
-231 802 0
-231 228 0
232 -36 -23 0
-232 36 0
-232 23 0
233 -232 -24 0
-233 232 0
-233 24 0
234 -803 -231 0
-234 803 0
-234 231 0
235 -756 -735 0
-235 756 0
-235 735 0
236 -235 -767 0
-236 235 0
-236 767 0
237 -804 -234 0
-237 804 0
-237 234 0
238 -703 -1 0
-238 703 0
-238 1 0
239 -238 -801 0
-239 238 0
-239 801 0
240 -805 -237 0
-240 805 0
-240 237 0
241 -28 -9 0
-241 28 0
-241 9 0
242 -241 -40 0
-242 241 0
-242 40 0
243 -806 -240 0
-243 806 0
-243 240 0
244 -34 -18 0
-244 34 0
-244 18 0
245 -244 -42 0
-245 244 0
-245 42 0
246 -807 -243 0
-246 807 0
-246 243 0
247 -808 -23 0
-247 808 0
-247 23 0
248 -247 -756 0
-248 247 0
-248 756 0
249 -809 -246 0
-249 809 0
-249 246 0
250 -740 -789 0
-250 740 0
-250 789 0
251 -250 -21 0
-251 250 0
-251 21 0
252 -810 -249 0
-252 810 0
-252 249 0
253 -735 -717 0
-253 735 0
-253 717 0
254 -253 -811 0
-254 253 0
-254 811 0
255 -812 -252 0
-255 812 0
-255 252 0
256 -15 -11 0
-256 15 0
-256 11 0
257 -256 -813 0
-257 256 0
-257 813 0
258 -814 -255 0
-258 814 0
-258 255 0
259 -719 -16 0
-259 719 0
-259 16 0
260 -259 -40 0
-260 259 0
-260 40 0
261 -815 -258 0
-261 815 0
-261 258 0
262 -34 -780 0
-262 34 0
-262 780 0
263 -262 -48 0
-263 262 0
-263 48 0
264 -816 -261 0
-264 816 0
-264 261 0
265 -783 -706 0
-265 783 0
-265 706 0
266 -265 -813 0
-266 265 0
-266 813 0
267 -817 -264 0
-267 817 0
-267 264 0
268 -42 -700 0
-268 42 0
-268 700 0
269 -268 -9 0
-269 268 0
-269 9 0
270 -818 -267 0
-270 818 0
-270 267 0
271 -774 -29 0
-271 774 0
-271 29 0
272 -271 -14 0
-272 271 0
-272 14 0
273 -819 -270 0
-273 819 0
-273 270 0
274 -756 -777 0
-274 756 0
-274 777 0
275 -274 -50 0
-275 274 0
-275 50 0
276 -820 -273 0
-276 820 0
-276 273 0
277 -43 -42 0
-277 43 0
-277 42 0
278 -277 -801 0
-278 277 0
-278 801 0
279 -821 -276 0
-279 821 0
-279 276 0
280 -24 -6 0
-280 24 0
-280 6 0
281 -280 -3 0
-281 280 0
-281 3 0
282 -822 -279 0
-282 822 0
-282 279 0
283 -823 -779 0
-283 823 0
-283 779 0
284 -283 -752 0
-284 283 0
-284 752 0
285 -824 -282 0
-285 824 0
-285 282 0
286 -774 -4 0
-286 774 0
-286 4 0
287 -286 -744 0
-287 286 0
-287 744 0
288 -825 -285 0
-288 825 0
-288 285 0
289 -779 -33 0
-289 779 0
-289 33 0
290 -289 -45 0
-290 289 0
-290 45 0
291 -826 -288 0
-291 826 0
-291 288 0
292 -744 -729 0
-292 744 0
-292 729 0
293 -292 -25 0
-293 292 0
-293 25 0
294 -827 -291 0
-294 827 0
-294 291 0
295 -3 -700 0
-295 3 0
-295 700 0
296 -295 -22 0
-296 295 0
-296 22 0
297 -828 -294 0
-297 828 0
-297 294 0
298 -38 -16 0
-298 38 0
-298 16 0
299 -298 -764 0
-299 298 0
-299 764 0
300 -829 -297 0
-300 829 0
-300 297 0
301 -10 -700 0
-301 10 0
-301 700 0
302 -301 -27 0
-302 301 0
-302 27 0
303 -830 -300 0
-303 830 0
-303 300 0
304 -831 -702 0
-304 831 0
-304 702 0
305 -304 -40 0
-305 304 0
-305 40 0
306 -832 -303 0
-306 832 0
-306 303 0
307 -92 -737 0
-307 92 0
-307 737 0
308 -833 -306 0
-308 833 0
-308 306 0
309 -29 -4 0
-309 29 0
-309 4 0
310 -309 -16 0
-310 309 0
-310 16 0
311 -834 -308 0
-311 834 0
-311 308 0
312 -40 -719 0
-312 40 0
-312 719 0
313 -312 -22 0
-313 312 0
-313 22 0
314 -835 -311 0
-314 835 0
-314 311 0
315 -41 -701 0
-315 41 0
-315 701 0
316 -315 -724 0
-316 315 0
-316 724 0
317 -836 -314 0
-317 836 0
-317 314 0
318 -28 -17 0
-318 28 0
-318 17 0
319 -318 -33 0
-319 318 0
-319 33 0
320 -837 -317 0
-320 837 0
-320 317 0
321 -742 -735 0
-321 742 0
-321 735 0
322 -321 -715 0
-322 321 0
-322 715 0
323 -838 -320 0
-323 838 0
-323 320 0
324 -831 -703 0
-324 831 0
-324 703 0
325 -324 -40 0
-325 324 0
-325 40 0
326 -839 -323 0
-326 839 0
-326 323 0
327 -831 -13 0
-327 831 0
-327 13 0
328 -327 -19 0
-328 327 0
-328 19 0
329 -840 -326 0
-329 840 0
-329 326 0
330 -735 -7 0
-330 735 0
-330 7 0
331 -330 -16 0
-331 330 0
-331 16 0
332 -841 -329 0
-332 841 0
-332 329 0
333 -774 -842 0
-333 774 0
-333 842 0
334 -333 -702 0
-334 333 0
-334 702 0
335 -843 -332 0
-335 843 0
-335 332 0
336 -38 -18 0
-336 38 0
-336 18 0
337 -336 -43 0
-337 336 0
-337 43 0
338 -844 -335 0
-338 844 0
-338 335 0
339 -50 -761 0
-339 50 0
-339 761 0
340 -339 -794 0
-340 339 0
-340 794 0
341 -845 -338 0
-341 845 0
-341 338 0
342 -772 -761 0
-342 772 0
-342 761 0
343 -342 -764 0
-343 342 0
-343 764 0
344 -846 -341 0
-344 846 0
-344 341 0
345 -779 -721 0
-345 779 0
-345 721 0
346 -345 -724 0
-346 345 0
-346 724 0
347 -847 -344 0
-347 847 0
-347 344 0
348 -29 -831 0
-348 29 0
-348 831 0
349 -348 -27 0
-349 348 0
-349 27 0
350 -848 -347 0
-350 848 0
-350 347 0
351 -719 -707 0
-351 719 0
-351 707 0
352 -351 -811 0
-352 351 0
-352 811 0
353 -849 -350 0
-353 849 0
-353 350 0
354 -41 -27 0
-354 41 0
-354 27 0
355 -354 -811 0
-355 354 0
-355 811 0
356 -850 -353 0
-356 850 0
-356 353 0
357 -721 -747 0
-357 721 0
-357 747 0
358 -357 -9 0
-358 357 0
-358 9 0
359 -851 -356 0
-359 851 0
-359 356 0
360 -46 -15 0
-360 46 0
-360 15 0
361 -360 -6 0
-361 360 0
-361 6 0
362 -852 -359 0
-362 852 0
-362 359 0
363 -823 -36 0
-363 823 0
-363 36 0
364 -363 -744 0
-364 363 0
-364 744 0
365 -853 -362 0
-365 853 0
-365 362 0
366 -774 -735 0
-366 774 0
-366 735 0
367 -366 -715 0
-367 366 0
-367 715 0
368 -854 -365 0
-368 854 0
-368 365 0
369 -21 -789 0
-369 21 0
-369 789 0
370 -369 -729 0
-370 369 0
-370 729 0
371 -855 -368 0
-371 855 0
-371 368 0
372 -726 -4 0
-372 726 0
-372 4 0
373 -372 -37 0
-373 372 0
-373 37 0
374 -856 -371 0
-374 856 0
-374 371 0
375 -29 -23 0
-375 29 0
-375 23 0
376 -375 -12 0
-376 375 0
-376 12 0
377 -857 -374 0
-377 857 0
-377 374 0
378 -721 -748 0
-378 721 0
-378 748 0
379 -378 -756 0
-379 378 0
-379 756 0
380 -858 -377 0
-380 858 0
-380 377 0
381 -16 -12 0
-381 16 0
-381 12 0
382 -381 -742 0
-382 381 0
-382 742 0
383 -859 -380 0
-383 859 0
-383 380 0
384 -772 -18 0
-384 772 0
-384 18 0
385 -384 -21 0
-385 384 0
-385 21 0
386 -860 -383 0
-386 860 0
-386 383 0
387 -47 -808 0
-387 47 0
-387 808 0
388 -387 -45 0
-388 387 0
-388 45 0
389 -861 -386 0
-389 861 0
-389 386 0
390 -726 -16 0
-390 726 0
-390 16 0
391 -390 -25 0
-391 390 0
-391 25 0
392 -862 -389 0
-392 862 0
-392 389 0
393 -46 -9 0
-393 46 0
-393 9 0
394 -393 -759 0
-394 393 0
-394 759 0
395 -863 -392 0
-395 863 0
-395 392 0
396 -774 -706 0
-396 774 0
-396 706 0
397 -396 -17 0
-397 396 0
-397 17 0
398 -864 -395 0
-398 864 0
-398 395 0
399 -723 -707 0
-399 723 0
-399 707 0
400 -399 -709 0
-400 399 0
-400 709 0
401 -865 -398 0
-401 865 0
-401 398 0
402 -46 -780 0
-402 46 0
-402 780 0
403 -402 -721 0
-403 402 0
-403 721 0
404 -866 -401 0
-404 866 0
-404 401 0
405 -10 -737 0
-405 10 0
-405 737 0
406 -405 -707 0
-406 405 0
-406 707 0
407 -867 -404 0
-407 867 0
-407 404 0
408 -823 -740 0
-408 823 0
-408 740 0
409 -408 -776 0
-409 408 0
-409 776 0
410 -868 -407 0
-410 868 0
-410 407 0
411 -730 -702 0
-411 730 0
-411 702 0
412 -411 -14 0
-412 411 0
-412 14 0
413 -869 -410 0
-413 869 0
-413 410 0
414 -729 -24 0
-414 729 0
-414 24 0
415 -414 -764 0
-415 414 0
-415 764 0
416 -870 -413 0
-416 870 0
-416 413 0
417 -16 -748 0
-417 16 0
-417 748 0
418 -417 -49 0
-418 417 0
-418 49 0
419 -871 -416 0
-419 871 0
-419 416 0
420 -759 -780 0
-420 759 0
-420 780 0
421 -420 -801 0
-421 420 0
-421 801 0
422 -872 -419 0
-422 872 0
-422 419 0
423 -719 -14 0
-423 719 0
-423 14 0
424 -423 -742 0
-424 423 0
-424 742 0
425 -873 -422 0
-425 873 0
-425 422 0
426 -38 -3 0
-426 38 0
-426 3 0
427 -426 -759 0
-427 426 0
-427 759 0
428 -874 -425 0
-428 874 0
-428 425 0
429 -748 -1 0
-429 748 0
-429 1 0
430 -429 -12 0
-430 429 0
-430 12 0
431 -875 -428 0
-431 875 0
-431 428 0
432 -47 -38 0
-432 47 0
-432 38 0
433 -432 -811 0
-433 432 0
-433 811 0
434 -876 -431 0
-434 876 0
-434 431 0
435 -24 -737 0
-435 24 0
-435 737 0
436 -435 -3 0
-436 435 0
-436 3 0
437 -877 -434 0
-437 877 0
-437 434 0
438 -265 -33 0
-438 265 0
-438 33 0
439 -878 -437 0
-439 878 0
-439 437 0
440 -717 -702 0
-440 717 0
-440 702 0
441 -440 -17 0
-441 440 0
-441 17 0
442 -879 -439 0
-442 879 0
-442 439 0
443 -49 -719 0
-443 49 0
-443 719 0
444 -443 -813 0
-444 443 0
-444 813 0
445 -880 -442 0
-445 880 0
-445 442 0
446 -881 -712 0
-446 881 0
-446 712 0
447 -446 -30 0
-447 446 0
-447 30 0
448 -882 -445 0
-448 882 0
-448 445 0
449 -21 -15 0
-449 21 0
-449 15 0
450 -449 -752 0
-450 449 0
-450 752 0
451 -883 -448 0
-451 883 0
-451 448 0
452 -730 -747 0
-452 730 0
-452 747 0
453 -452 -35 0
-453 452 0
-453 35 0
454 -884 -451 0
-454 884 0
-454 451 0
455 -779 -24 0
-455 779 0
-455 24 0
456 -455 -744 0
-456 455 0
-456 744 0
457 -885 -454 0
-457 885 0
-457 454 0
458 -706 -748 0
-458 706 0
-458 748 0
459 -458 -801 0
-459 458 0
-459 801 0
460 -886 -457 0
-460 886 0
-460 457 0
461 -32 -16 0
-461 32 0
-461 16 0
462 -461 -774 0
-462 461 0
-462 774 0
463 -887 -460 0
-463 887 0
-463 460 0
464 -45 -30 0
-464 45 0
-464 30 0
465 -464 -40 0
-465 464 0
-465 40 0
466 -888 -463 0
-466 888 0
-466 463 0
467 -3 -1 0
-467 3 0
-467 1 0
468 -467 -813 0
-468 467 0
-468 813 0
469 -889 -466 0
-469 889 0
-469 466 0
470 -808 -717 0
-470 808 0
-470 717 0
471 -470 -890 0
-471 470 0
-471 890 0
472 -891 -469 0
-472 891 0
-472 469 0
473 -20 -17 0
-473 20 0
-473 17 0
474 -473 -811 0
-474 473 0
-474 811 0
475 -892 -472 0
-475 892 0
-475 472 0
476 -723 -4 0
-476 723 0
-476 4 0
477 -476 -3 0
-477 476 0
-477 3 0
478 -893 -475 0
-478 893 0
-478 475 0
479 -729 -717 0
-479 729 0
-479 717 0
480 -479 -30 0
-480 479 0
-480 30 0
481 -894 -478 0
-481 894 0
-481 478 0
482 -735 -6 0
-482 735 0
-482 6 0
483 -482 -764 0
-483 482 0
-483 764 0
484 -895 -481 0
-484 895 0
-484 481 0
485 -23 -700 0
-485 23 0
-485 700 0
486 -485 -48 0
-486 485 0
-486 48 0
487 -896 -484 0
-487 896 0
-487 484 0
488 -726 -707 0
-488 726 0
-488 707 0
489 -488 -713 0
-489 488 0
-489 713 0
490 -897 -487 0
-490 897 0
-490 487 0
491 -44 -767 0
-491 44 0
-491 767 0
492 -491 -890 0
-492 491 0
-492 890 0
493 -898 -490 0
-493 898 0
-493 490 0
494 -881 -13 0
-494 881 0
-494 13 0
495 -494 -813 0
-495 494 0
-495 813 0
496 -899 -493 0
-496 899 0
-496 493 0
497 -27 -26 0
-497 27 0
-497 26 0
498 -497 -823 0
-498 497 0
-498 823 0
499 -900 -496 0
-499 900 0
-499 496 0
500 -744 -737 0
-500 744 0
-500 737 0
501 -500 -811 0
-501 500 0
-501 811 0
502 -901 -499 0
-502 901 0
-502 499 0
503 -777 -723 0
-503 777 0
-503 723 0
504 -503 -37 0
-504 503 0
-504 37 0
505 -902 -502 0
-505 902 0
-505 502 0
506 -712 -780 0
-506 712 0
-506 780 0
507 -506 -5 0
-507 506 0
-507 5 0
508 -903 -505 0
-508 903 0
-508 505 0
509 -38 -735 0
-509 38 0
-509 735 0
510 -509 -730 0
-510 509 0
-510 730 0
511 -904 -508 0
-511 904 0
-511 508 0
512 -726 -9 0
-512 726 0
-512 9 0
513 -512 -31 0
-513 512 0
-513 31 0
514 -905 -511 0
-514 905 0
-514 511 0
515 -34 -723 0
-515 34 0
-515 723 0
516 -515 -27 0
-516 515 0
-516 27 0
517 -906 -514 0
-517 906 0
-517 514 0
518 -890 -21 0
-518 890 0
-518 21 0
519 -518 -25 0
-519 518 0
-519 25 0
520 -907 -517 0
-520 907 0
-520 517 0
521 -721 -780 0
-521 721 0
-521 780 0
522 -521 -34 0
-522 521 0
-522 34 0
523 -908 -520 0
-523 908 0
-523 520 0
524 -8 -703 0
-524 8 0
-524 703 0
525 -524 -14 0
-525 524 0
-525 14 0
526 -909 -523 0
-526 909 0
-526 523 0
527 -740 -13 0
-527 740 0
-527 13 0
528 -527 -726 0
-528 527 0
-528 726 0
529 -910 -526 0
-529 910 0
-529 526 0
530 -36 -735 0
-530 36 0
-530 735 0
531 -530 -776 0
-531 530 0
-531 776 0
532 -911 -529 0
-532 911 0
-532 529 0
533 -823 -700 0
-533 823 0
-533 700 0
534 -533 -35 0
-534 533 0
-534 35 0
535 -912 -532 0
-535 912 0
-535 532 0
536 -49 -23 0
-536 49 0
-536 23 0
537 -536 -3 0
-537 536 0
-537 3 0
538 -913 -535 0
-538 913 0
-538 535 0
539 -47 -32 0
-539 47 0
-539 32 0
540 -539 -737 0
-540 539 0
-540 737 0
541 -914 -538 0
-541 914 0
-541 538 0
542 -756 -717 0
-542 756 0
-542 717 0
543 -542 -43 0
-543 542 0
-543 43 0
544 -915 -541 0
-544 915 0
-544 541 0
545 -777 -831 0
-545 777 0
-545 831 0
546 -545 -9 0
-546 545 0
-546 9 0
547 -916 -544 0
-547 916 0
-547 544 0
548 -772 -700 0
-548 772 0
-548 700 0
549 -548 -30 0
-549 548 0
-549 30 0
550 -917 -547 0
-550 917 0
-550 547 0
551 -47 -780 0
-551 47 0
-551 780 0
552 -551 -823 0
-552 551 0
-552 823 0
553 -918 -550 0
-553 918 0
-553 550 0
554 -13 -780 0
-554 13 0
-554 780 0
555 -554 -719 0
-555 554 0
-555 719 0
556 -919 -553 0
-556 919 0
-556 553 0
557 -756 -24 0
-557 756 0
-557 24 0
558 -557 -707 0
-558 557 0
-558 707 0
559 -920 -556 0
-559 920 0
-559 556 0
560 -756 -21 0
-560 756 0
-560 21 0
561 -560 -50 0
-561 560 0
-561 50 0
562 -921 -559 0
-562 921 0
-562 559 0
563 -732 -723 0
-563 732 0
-563 723 0
564 -563 -30 0
-564 563 0
-564 30 0
565 -922 -562 0
-565 922 0
-565 562 0
566 -23 -703 0
-566 23 0
-566 703 0
567 -566 -801 0
-567 566 0
-567 801 0
568 -923 -565 0
-568 923 0
-568 565 0
569 -712 -709 0
-569 712 0
-569 709 0
570 -569 -742 0
-570 569 0
-570 742 0
571 -924 -568 0
-571 924 0
-571 568 0
572 -381 -45 0
-572 381 0
-572 45 0
573 -925 -571 0
-573 925 0
-573 571 0
574 -13 -10 0
-574 13 0
-574 10 0
575 -574 -767 0
-575 574 0
-575 767 0
576 -926 -573 0
-576 926 0
-576 573 0
577 -39 -712 0
-577 39 0
-577 712 0
578 -577 -709 0
-578 577 0
-578 709 0
579 -927 -576 0
-579 927 0
-579 576 0
580 -36 -26 0
-580 36 0
-580 26 0
581 -580 -18 0
-581 580 0
-581 18 0
582 -928 -579 0
-582 928 0
-582 579 0
583 -43 -761 0
-583 43 0
-583 761 0
584 -583 -709 0
-584 583 0
-584 709 0
585 -929 -582 0
-585 929 0
-585 582 0
586 -36 -730 0
-586 36 0
-586 730 0
587 -586 -43 0
-587 586 0
-587 43 0
588 -930 -585 0
-588 930 0
-588 585 0
589 -831 -2 0
-589 831 0
-589 2 0
590 -589 -22 0
-590 589 0
-590 22 0
591 -931 -588 0
-591 931 0
-591 588 0
592 -40 -4 0
-592 40 0
-592 4 0
593 -592 -715 0
-593 592 0
-593 715 0
594 -932 -591 0
-594 932 0
-594 591 0
595 -772 -38 0
-595 772 0
-595 38 0
596 -595 -707 0
-596 595 0
-596 707 0
597 -933 -594 0
-597 933 0
-597 594 0
598 -761 -747 0
-598 761 0
-598 747 0
599 -598 -842 0
-599 598 0
-599 842 0
600 -934 -597 0
-600 934 0
-600 597 0
601 -808 -735 0
-601 808 0
-601 735 0
602 -601 -35 0
-602 601 0
-602 35 0
603 -935 -600 0
-603 935 0
-603 600 0
604 -33 -29 0
-604 33 0
-604 29 0
605 -604 -25 0
-605 604 0
-605 25 0
606 -936 -603 0
-606 936 0
-606 603 0
607 -50 -49 0
-607 50 0
-607 49 0
608 -607 -35 0
-608 607 0
-608 35 0
609 -937 -606 0
-609 937 0
-609 606 0
610 -777 -15 0
-610 777 0
-610 15 0
611 -610 -764 0
-611 610 0
-611 764 0
612 -938 -609 0
-612 938 0
-612 609 0
613 -46 -783 0
-613 46 0
-613 783 0
614 -613 -21 0
-614 613 0
-614 21 0
615 -939 -612 0
-615 939 0
-615 612 0
616 -43 -2 0
-616 43 0
-616 2 0
617 -616 -813 0
-617 616 0
-617 813 0
618 -940 -615 0
-618 940 0
-618 615 0
619 -47 -813 0
-619 47 0
-619 813 0
620 -619 -45 0
-620 619 0
-620 45 0
621 -941 -618 0
-621 941 0
-621 618 0
622 -767 -719 0
-622 767 0
-622 719 0
623 -622 -19 0
-623 622 0
-623 19 0
624 -942 -621 0
-624 942 0
-624 621 0
625 -16 -842 0
-625 16 0
-625 842 0
626 -625 -30 0
-626 625 0
-626 30 0
627 -943 -624 0
-627 943 0
-627 624 0
628 -774 -724 0
-628 774 0
-628 724 0
629 -628 -811 0
-629 628 0
-629 811 0
630 -944 -627 0
-630 944 0
-630 627 0
631 -723 -10 0
-631 723 0
-631 10 0
632 -631 -801 0
-632 631 0
-632 801 0
633 -945 -630 0
-633 945 0
-633 630 0
634 -4 -700 0
-634 4 0
-634 700 0
635 -634 -724 0
-635 634 0
-635 724 0
636 -946 -633 0
-636 946 0
-636 633 0
637 -47 -842 0
-637 47 0
-637 842 0
638 -637 -49 0
-638 637 0
-638 49 0
639 -947 -636 0
-639 947 0
-639 636 0
640 -761 -13 0
-640 761 0
-640 13 0
641 -640 -40 0
-641 640 0
-641 40 0
642 -948 -639 0
-642 948 0
-642 639 0
643 -48 -32 0
-643 48 0
-643 32 0
644 -643 -713 0
-644 643 0
-644 713 0
645 -949 -642 0
-645 949 0
-645 642 0
646 -831 -789 0
-646 831 0
-646 789 0
647 -646 -39 0
-647 646 0
-647 39 0
648 -950 -645 0
-648 950 0
-648 645 0
649 -706 -3 0
-649 706 0
-649 3 0
650 -649 -890 0
-650 649 0
-650 890 0
651 -951 -648 0
-651 951 0
-651 648 0
652 -756 -842 0
-652 756 0
-652 842 0
653 -652 -717 0
-653 652 0
-653 717 0
654 -952 -651 0
-654 952 0
-654 651 0
655 -32 -732 0
-655 32 0
-655 732 0
656 -655 -18 0
-656 655 0
-656 18 0
657 -953 -654 0
-657 953 0
-657 654 0
658 -41 -5 0
-658 41 0
-658 5 0
659 -658 -767 0
-659 658 0
-659 767 0
660 -954 -657 0
-660 954 0
-660 657 0
661 -831 -4 0
-661 831 0
-661 4 0
662 -661 -811 0
-662 661 0
-662 811 0
663 -955 -660 0
-663 955 0
-663 660 0
664 -823 -756 0
-664 823 0
-664 756 0
665 -664 -30 0
-665 664 0
-665 30 0
666 -956 -663 0
-666 956 0
-666 663 0
667 -772 -32 0
-667 772 0
-667 32 0
668 -667 -706 0
-668 667 0
-668 706 0
669 -957 -666 0
-669 957 0
-669 666 0
670 -45 -21 0
-670 45 0
-670 21 0
671 -670 -30 0
-671 670 0
-671 30 0
672 -958 -669 0
-672 958 0
-672 669 0
673 -41 -8 0
-673 41 0
-673 8 0
674 -673 -9 0
-674 673 0
-674 9 0
675 -959 -672 0
-675 959 0
-675 672 0
676 -48 -46 0
-676 48 0
-676 46 0
677 -676 -759 0
-677 676 0
-677 759 0
678 -960 -675 0
-678 960 0
-678 675 0
679 -46 -2 0
-679 46 0
-679 2 0
680 -679 -30 0
-680 679 0
-680 30 0
681 -961 -678 0
-681 961 0
-681 678 0
682 -717 -10 0
-682 717 0
-682 10 0
683 -682 -724 0
-683 682 0
-683 724 0
684 -962 -681 0
-684 962 0
-684 681 0
685 -49 -712 0
-685 49 0
-685 712 0
686 -685 -12 0
-686 685 0
-686 12 0
687 -963 -684 0
-687 963 0
-687 684 0
688 -740 -842 0
-688 740 0
-688 842 0
689 -688 -719 0
-689 688 0
-689 719 0
690 -964 -687 0
-690 964 0
-690 687 0
691 -707 -706 0
-691 707 0
-691 706 0
692 -691 -31 0
-692 691 0
-692 31 0
693 -965 -690 0
-693 965 0
-693 690 0
694 -37 -707 0
-694 37 0
-694 707 0
695 -694 -50 0
-695 694 0
-695 50 0
696 -966 -693 0
-696 966 0
-696 693 0
697 -37 -740 0
-697 37 0
-697 740 0
698 -697 -801 0
-698 697 0
-698 801 0
699 -967 -696 0
-699 967 0
-699 696 0
-700 -2 0
700 2 0
-701 -3 0
701 3 0
-702 -5 0
702 5 0
-703 -6 0
703 6 0
-704 -54 0
704 54 0
-705 -52 0
705 52 0
-706 -8 0
706 8 0
-707 -9 0
707 9 0
-708 -57 0
708 57 0
-709 -12 0
709 12 0
-710 -60 0
710 60 0
-711 -63 0
711 63 0
-712 -16 0
712 16 0
-713 -17 0
713 17 0
-714 -66 0
714 66 0
-715 -19 0
715 19 0
-716 -69 0
716 69 0
-717 -18 0
717 18 0
-718 -72 0
718 72 0
-719 -21 0
719 21 0
-720 -75 0
720 75 0
-721 -23 0
721 23 0
-722 -78 0
722 78 0
-723 -13 0
723 13 0
-724 -14 0
724 14 0
-725 -81 0
725 81 0
-726 -24 0
726 24 0
-727 -84 0
727 84 0
-728 -87 0
728 87 0
-729 -27 0
729 27 0
-730 -28 0
730 28 0
-731 -90 0
731 90 0
-732 -29 0
732 29 0
-733 -93 0
733 93 0
-734 -96 0
734 96 0
-735 -20 0
735 20 0
-736 -99 0
736 99 0
-737 -1 0
737 1 0
-738 -102 0
738 102 0
-739 -105 0
739 105 0
-740 -32 0
740 32 0
-741 -108 0
741 108 0
-742 -30 0
742 30 0
-743 -111 0
743 111 0
-744 -33 0
744 33 0
-745 -114 0
745 114 0
-746 -117 0
746 117 0
-747 -15 0
747 15 0
-748 -7 0
748 7 0
-749 -120 0
749 120 0
-750 -123 0
750 123 0
-751 -126 0
751 126 0
-752 -25 0
752 25 0
-753 -129 0
753 129 0
-754 -132 0
754 132 0
-755 -135 0
755 135 0
-756 -39 0
756 39 0
-757 -138 0
757 138 0
-758 -141 0
758 141 0
-759 -37 0
759 37 0
-760 -144 0
760 144 0
-761 -41 0
761 41 0
-762 -147 0
762 147 0
-763 -150 0
763 150 0
-764 -22 0
764 22 0
-765 -153 0
765 153 0
-766 -156 0
766 156 0
-767 -43 0
767 43 0
-768 -159 0
768 159 0
-769 -162 0
769 162 0
-770 -165 0
770 165 0
-771 -168 0
771 168 0
-772 -46 0
772 46 0
-773 -171 0
773 171 0
-774 -34 0
774 34 0
-775 -174 0
775 174 0
-776 -48 0
776 48 0
-777 -36 0
777 36 0
-778 -177 0
778 177 0
-779 -42 0
779 42 0
-780 -4 0
780 4 0
-781 -180 0
781 180 0
-782 -183 0
782 183 0
-783 -44 0
783 44 0
-784 -186 0
784 186 0
-785 -188 0
785 188 0
-786 -191 0
786 191 0
-787 -194 0
787 194 0
-788 -197 0
788 197 0
-789 -10 0
789 10 0
-790 -200 0
790 200 0
-791 -203 0
791 203 0
-792 -206 0
792 206 0
-793 -209 0
793 209 0
-794 -45 0
794 45 0
-795 -212 0
795 212 0
-796 -215 0
796 215 0
-797 -218 0
797 218 0
-798 -221 0
798 221 0
-799 -224 0
799 224 0
-800 -227 0
800 227 0
-801 -50 0
801 50 0
-802 -230 0
802 230 0
-803 -233 0
803 233 0
-804 -236 0
804 236 0
-805 -239 0
805 239 0
-806 -242 0
806 242 0
-807 -245 0
807 245 0
-808 -38 0
808 38 0
-809 -248 0
809 248 0
-810 -251 0
810 251 0
-811 -40 0
811 40 0
-812 -254 0
812 254 0
-813 -35 0
813 35 0
-814 -257 0
814 257 0
-815 -260 0
815 260 0
-816 -263 0
816 263 0
-817 -266 0
817 266 0
-818 -269 0
818 269 0
-819 -272 0
819 272 0
-820 -275 0
820 275 0
-821 -278 0
821 278 0
-822 -281 0
822 281 0
-823 -49 0
823 49 0
-824 -284 0
824 284 0
-825 -287 0
825 287 0
-826 -290 0
826 290 0
-827 -293 0
827 293 0
-828 -296 0
828 296 0
-829 -299 0
829 299 0
-830 -302 0
830 302 0
-831 -26 0
831 26 0
-832 -305 0
832 305 0
-833 -307 0
833 307 0
-834 -310 0
834 310 0
-835 -313 0
835 313 0
-836 -316 0
836 316 0
-837 -319 0
837 319 0
-838 -322 0
838 322 0
-839 -325 0
839 325 0
-840 -328 0
840 328 0
-841 -331 0
841 331 0
-842 -11 0
842 11 0
-843 -334 0
843 334 0
-844 -337 0
844 337 0
-845 -340 0
845 340 0
-846 -343 0
846 343 0
-847 -346 0
847 346 0
-848 -349 0
848 349 0
-849 -352 0
849 352 0
-850 -355 0
850 355 0
-851 -358 0
851 358 0
-852 -361 0
852 361 0
-853 -364 0
853 364 0
-854 -367 0
854 367 0
-855 -370 0
855 370 0
-856 -373 0
856 373 0
-857 -376 0
857 376 0
-858 -379 0
858 379 0
-859 -382 0
859 382 0
-860 -385 0
860 385 0
-861 -388 0
861 388 0
-862 -391 0
862 391 0
-863 -394 0
863 394 0
-864 -397 0
864 397 0
-865 -400 0
865 400 0
-866 -403 0
866 403 0
-867 -406 0
867 406 0
-868 -409 0
868 409 0
-869 -412 0
869 412 0
-870 -415 0
870 415 0
-871 -418 0
871 418 0
-872 -421 0
872 421 0
-873 -424 0
873 424 0
-874 -427 0
874 427 0
-875 -430 0
875 430 0
-876 -433 0
876 433 0
-877 -436 0
877 436 0
-878 -438 0
878 438 0
-879 -441 0
879 441 0
-880 -444 0
880 444 0
-881 -47 0
881 47 0
-882 -447 0
882 447 0
-883 -450 0
883 450 0
-884 -453 0
884 453 0
-885 -456 0
885 456 0
-886 -459 0
886 459 0
-887 -462 0
887 462 0
-888 -465 0
888 465 0
-889 -468 0
889 468 0
-890 -31 0
890 31 0
-891 -471 0
891 471 0
-892 -474 0
892 474 0
-893 -477 0
893 477 0
-894 -480 0
894 480 0
-895 -483 0
895 483 0
-896 -486 0
896 486 0
-897 -489 0
897 489 0
-898 -492 0
898 492 0
-899 -495 0
899 495 0
-900 -498 0
900 498 0
-901 -501 0
901 501 0
-902 -504 0
902 504 0
-903 -507 0
903 507 0
-904 -510 0
904 510 0
-905 -513 0
905 513 0
-906 -516 0
906 516 0
-907 -519 0
907 519 0
-908 -522 0
908 522 0
-909 -525 0
909 525 0
-910 -528 0
910 528 0
-911 -531 0
911 531 0
-912 -534 0
912 534 0
-913 -537 0
913 537 0
-914 -540 0
914 540 0
-915 -543 0
915 543 0
-916 -546 0
916 546 0
-917 -549 0
917 549 0
-918 -552 0
918 552 0
-919 -555 0
919 555 0
-920 -558 0
920 558 0
-921 -561 0
921 561 0
-922 -564 0
922 564 0
-923 -567 0
923 567 0
-924 -570 0
924 570 0
-925 -572 0
925 572 0
-926 -575 0
926 575 0
-927 -578 0
927 578 0
-928 -581 0
928 581 0
-929 -584 0
929 584 0
-930 -587 0
930 587 0
-931 -590 0
931 590 0
-932 -593 0
932 593 0
-933 -596 0
933 596 0
-934 -599 0
934 599 0
-935 -602 0
935 602 0
-936 -605 0
936 605 0
-937 -608 0
937 608 0
-938 -611 0
938 611 0
-939 -614 0
939 614 0
-940 -617 0
940 617 0
-941 -620 0
941 620 0
-942 -623 0
942 623 0
-943 -626 0
943 626 0
-944 -629 0
944 629 0
-945 -632 0
945 632 0
-946 -635 0
946 635 0
-947 -638 0
947 638 0
-948 -641 0
948 641 0
-949 -644 0
949 644 0
-950 -647 0
950 647 0
-951 -650 0
951 650 0
-952 -653 0
952 653 0
-953 -656 0
953 656 0
-954 -659 0
954 659 0
-955 -662 0
955 662 0
-956 -665 0
956 665 0
-957 -668 0
957 668 0
-958 -671 0
958 671 0
-959 -674 0
959 674 0
-960 -677 0
960 677 0
-961 -680 0
961 680 0
-962 -683 0
962 683 0
-963 -686 0
963 686 0
-964 -689 0
964 689 0
-965 -692 0
965 692 0
-966 -695 0
966 695 0
-967 -698 0
967 698 0
699 0
